25689.21,50.85,55.99
31999.92,40.82,44.95
25933.54,50.37,55.47
31087.66,42.02,46.27
29379.11,44.46,48.96
28818.73,45.32,49.91
29562.53,44.18,48.66
27812.84,46.96,51.72
34507.91,37.85,41.69
29232.61,44.68,49.21
30070.37,43.44,47.84
27211.94,48.0,52.86
26557.44,49.18,54.16
34364.95,38.01,41.86
30040.93,43.48,47.88
30248.49,43.18,47.55
28461.3,45.89,50.54
32113.1,40.68,44.79
30749.47,42.48,46.78
36025.16,36.26,39.93
